
Gurobi 8.1.1 (mac64, Python) logging started Wed Nov  6 15:49:02 2019

Academic license - for non-commercial use only

Gurobi 8.1.1 (mac64, Python) logging started Wed Nov  6 16:19:40 2019

Academic license - for non-commercial use only

Gurobi 8.1.1 (mac64, Python) logging started Wed Nov  6 17:14:44 2019

Academic license - for non-commercial use only
